12      4       
9       10      10      10      
0       0       0       0       0       4       2       3       4       5       
9       0       6       0       0       2       7       10      
7       0       3       0       0       2       8       10      
6       9       10      6       7       1       6       
8       5       2       3       6       3       6       7       10      
3       6       5       6       6       1       9       
2       7       6       1       8       1       8       
2       7       8       10      9       2       9       11      
4       0       0       1       9       1       12      
4       8       9       8       1       1       12      
3       0       0       6       2       1       12      
0       0       0       0       0       0       
